
Gurobi 7.5.2 (linux64) logging started Sat Jul  7 16:00:14 2018

Changed value of parameter LogFile to result/ilp/simNo_5-n_100-m_40-s_4-minVAF_0.05-cov_10000-k_2-fn_0.10-fp_0.0001-na_0.15.ILP.gurobiSolverLog
   Prev: gurobi.log  Default: 
Changed value of parameter TimeLimit to 86400.0
   Prev: 1e+100  Min: 0.0  Max: 1e+100  Default: 1e+100
Optimize a model with 639293 rows, 10765 columns and 1940420 nonzeros
Variable types: 0 continuous, 10765 integer (10765 binary)
Coefficient statistics:
  Matrix range     [3e-05, 4e+00]
  Objective range  [1e+00, 9e+00]
  Bounds range     [1e+00, 1e+00]
  RHS range        [9e-02, 2e+00]
Found heuristic solution: objective -8952.300320
Presolve removed 136647 rows and 1053 columns (presolve time = 5s) ...
Presolve removed 137255 rows and 1053 columns (presolve time = 11s) ...
Presolve removed 198055 rows and 1661 columns (presolve time = 16s) ...
Presolve removed 198055 rows and 1661 columns
Presolve time: 15.59s
Presolved: 441238 rows, 9104 columns, 1325091 nonzeros
Variable types: 0 continuous, 9104 integer (9104 binary)
Presolved: 9104 rows, 450342 columns, 1334195 nonzeros

Presolve removed 9104 rows and 450342 columns

Root simplex log...

Iteration    Objective       Primal Inf.    Dual Inf.      Time
       0    1.7169898e+01   0.000000e+00   4.555900e+04     19s
    9536   -1.5263041e+02   0.000000e+00   0.000000e+00     21s
    9536   -1.5263041e+02   0.000000e+00   0.000000e+00     21s

Root relaxation: objective -1.526304e+02, 9536 iterations, 4.29 seconds
Total elapsed time = 30.52s
Total elapsed time = 36.18s

    Nodes    |    Current Node    |     Objective Bounds      |     Work
 Expl Unexpl |  Obj  Depth IntInf | Incumbent    BestBd   Gap | It/Node Time

     0     0 -152.63041    0  392 -8952.3003 -152.63041  98.3%     -   42s
H    0     0                    -288.2754546 -152.63041  47.1%     -   45s
H    0     0                    -229.4181115 -152.63041  33.5%     -   46s
H    0     0                    -215.8937631 -152.63041  29.3%     -   46s
     0     0 -159.75155    0  575 -215.89376 -159.75155  26.0%     -   52s
H    0     0                    -207.1167412 -159.75155  22.9%     -   60s
     0     0 -159.76826    0  439 -207.11674 -159.76826  22.9%     -   61s
     0     0 -163.75931    0  508 -207.11674 -163.75931  20.9%     -   74s
H    0     0                    -197.3020263 -163.75931  17.0%     -   79s
     0     0 -164.21480    0  577 -197.30203 -164.21480  16.8%     -   82s
     0     0 -164.21480    0  574 -197.30203 -164.21480  16.8%     -   85s
     0     0 -165.11492    0  589 -197.30203 -165.11492  16.3%     -   91s
H    0     0                    -195.0479682 -165.11492  15.3%     -   94s
     0     0 -166.11672    0  586 -195.04797 -166.11672  14.8%     -   96s
     0     0 -166.11672    0  586 -195.04797 -166.11672  14.8%     -   98s
     0     0 -169.05756    0  568 -195.04797 -169.05756  13.3%     -  105s
     0     0 -169.60053    0  565 -195.04797 -169.60053  13.0%     -  110s
     0     0 -169.60053    0  564 -195.04797 -169.60053  13.0%     -  112s
     0     0 -170.29196    0  586 -195.04797 -170.29196  12.7%     -  118s
     0     0 -170.31544    0  593 -195.04797 -170.31544  12.7%     -  122s
     0     0 -170.40187    0  592 -195.04797 -170.40187  12.6%     -  124s
     0     0 -170.40187    0  591 -195.04797 -170.40187  12.6%     -  127s
     0     0 -170.79225    0  592 -195.04797 -170.79225  12.4%     -  132s
     0     0 -171.06059    0  596 -195.04797 -171.06059  12.3%     -  137s
     0     0 -171.34235    0  592 -195.04797 -171.34235  12.2%     -  140s
     0     0 -171.34235    0  589 -195.04797 -171.34235  12.2%     -  142s
     0     0 -173.23683    0  582 -195.04797 -173.23683  11.2%     -  148s
     0     0 -173.42467    0  614 -195.04797 -173.42467  11.1%     -  153s
     0     0 -173.42467    0  602 -195.04797 -173.42467  11.1%     -  156s
     0     0 -174.51768    0  613 -195.04797 -174.51768  10.5%     -  161s
     0     0 -175.53809    0  610 -195.04797 -175.53809  10.0%     -  169s
     0     0 -175.63201    0  621 -195.04797 -175.63201  10.0%     -  171s
     0     0 -175.69909    0  615 -195.04797 -175.69909  9.92%     -  173s
     0     0 -175.94438    0  600 -195.04797 -175.94438  9.79%     -  176s
     0     0 -175.94438    0  603 -195.04797 -175.94438  9.79%     -  178s
     0     0 -177.40356    0  577 -195.04797 -177.40356  9.05%     -  185s
     0     0 -177.56621    0  602 -195.04797 -177.56621  8.96%     -  190s
     0     0 -177.56761    0  605 -195.04797 -177.56761  8.96%     -  193s
     0     0 -177.99064    0  601 -195.04797 -177.99064  8.75%     -  199s
     0     0 -178.25353    0  526 -195.04797 -178.25353  8.61%     -  205s
     0     0 -178.28935    0  604 -195.04797 -178.28935  8.59%     -  208s
     0     0 -178.31635    0  612 -195.04797 -178.31635  8.58%     -  210s
     0     0 -178.37896    0  610 -195.04797 -178.37896  8.55%     -  213s
     0     0 -178.37896    0  610 -195.04797 -178.37896  8.55%     -  215s
     0     0 -179.08776    0  602 -195.04797 -179.08776  8.18%     -  220s
     0     0 -180.01533    0  640 -195.04797 -180.01533  7.71%     -  227s
     0     0 -180.03128    0  644 -195.04797 -180.03128  7.70%     -  230s
     0     0 -180.03128    0  645 -195.04797 -180.03128  7.70%     -  232s
     0     0 -180.61255    0  606 -195.04797 -180.61255  7.40%     -  239s
     0     0 -181.47717    0  659 -195.04797 -181.47717  6.96%     -  246s
     0     0 -181.73637    0  633 -195.04797 -181.73637  6.82%     -  250s
     0     0 -181.79470    0  645 -195.04797 -181.79470  6.79%     -  253s
     0     0 -181.79945    0  650 -195.04797 -181.79945  6.79%     -  255s
     0     0 -181.87702    0  652 -195.04797 -181.87702  6.75%     -  258s
     0     0 -181.90655    0  649 -195.04797 -181.90655  6.74%     -  260s
     0     0 -181.90906    0  650 -195.04797 -181.90906  6.74%     -  262s
     0     0 -182.53325    0  630 -195.04797 -182.53325  6.42%     -  268s
     0     0 -182.58723    0  636 -195.04797 -182.58723  6.39%     -  278s
     0     0 -182.59094    0  637 -195.04797 -182.59094  6.39%     -  281s
     0     0 -182.59611    0  641 -195.04797 -182.59611  6.38%     -  283s
     0     0 -182.59611    0  641 -195.04797 -182.59611  6.38%     -  285s
     0     0 -182.81555    0  644 -195.04797 -182.81555  6.27%     -  290s
     0     0 -183.00430    0  634 -195.04797 -183.00430  6.17%     -  298s
     0     0 -183.00430    0  629 -195.04797 -183.00430  6.17%     -  300s
     0     0 -183.80451    0  621 -195.04797 -183.80451  5.76%     -  307s
     0     0 -183.85149    0  635 -195.04797 -183.85149  5.74%     -  312s
     0     0 -183.88648    0  641 -195.04797 -183.88648  5.72%     -  315s
     0     0 -183.89171    0  641 -195.04797 -183.89171  5.72%     -  317s
     0     0 -183.89171    0  641 -195.04797 -183.89171  5.72%     -  319s
     0     0 -184.84114    0  613 -195.04797 -184.84114  5.23%     -  326s
     0     0 -184.84114    0  604 -195.04797 -184.84114  5.23%     -  330s
     0     0 -185.05436    0  634 -195.04797 -185.05436  5.12%     -  335s
     0     0 -185.16814    0  637 -195.04797 -185.16814  5.07%     -  342s
     0     0 -185.17811    0  632 -195.04797 -185.17811  5.06%     -  345s
     0     0 -185.17811    0  640 -195.04797 -185.17811  5.06%     -  347s
     0     0 -185.18750    0  650 -195.04797 -185.18750  5.06%     -  352s
     0     0 -185.68872    0  638 -195.04797 -185.68872  4.80%     -  358s
     0     0 -185.77589    0  621 -195.04797 -185.77589  4.75%     -  361s
     0     0 -185.78581    0  634 -195.04797 -185.78581  4.75%     -  364s
     0     0 -185.78581    0  633 -195.04797 -185.78581  4.75%     -  365s
     0     0 -185.78581    0  589 -195.04797 -185.78581  4.75%     -  419s
     0     0 -185.78581    0  394 -195.04797 -185.78581  4.75%     -  456s
     0     0 -185.78581    0  500 -195.04797 -185.78581  4.75%     -  473s
     0     0 -185.78581    0  402 -195.04797 -185.78581  4.75%     -  480s
     0     0 -185.83010    0  396 -195.04797 -185.83010  4.73%     -  482s
     0     0 -185.95532    0  397 -195.04797 -185.95532  4.66%     -  483s
     0     0 -187.09009    0  515 -195.04797 -187.09009  4.08%     -  499s
     0     0 -187.09009    0  395 -195.04797 -187.09009  4.08%     -  522s
     0     0 -187.09009    0  514 -195.04797 -187.09009  4.08%     -  524s
     0     0 -187.24553    0  508 -195.04797 -187.24553  4.00%     -  525s
     0     0 -187.34882    0  393 -195.04797 -187.34882  3.95%     -  526s
     0     0 -187.38639    0  405 -195.04797 -187.38639  3.93%     -  526s
     0     0 -188.19011    0  495 -195.04797 -188.19011  3.52%     -  529s
     0     0 -188.19011    0  389 -195.04797 -188.19011  3.52%     -  531s
     0     0 -188.19011    0  486 -195.04797 -188.19011  3.52%     -  532s
     0     0 -188.19011    0  342 -195.04797 -188.19011  3.52%     -  533s
     0     0 -188.28083    0  473 -195.04797 -188.28083  3.47%     -  533s
     0     0 -188.34117    0  481 -195.04797 -188.34117  3.44%     -  533s
     0     0 -188.34117    0  481 -195.04797 -188.34117  3.44%     -  533s
     0     0 -188.34118    0  468 -195.04797 -188.34118  3.44%     -  533s
     0     0 -188.41799    0  469 -195.04797 -188.41799  3.40%     -  533s
     0     0 -188.42441    0  470 -195.04797 -188.42441  3.40%     -  533s
     0     0 -188.42441    0  470 -195.04797 -188.42441  3.40%     -  534s
     0     0 -188.52555    0  490 -195.04797 -188.52555  3.34%     -  534s
     0     0 -188.52555    0  489 -195.04797 -188.52555  3.34%     -  534s
     0     0 -188.52555    0  490 -195.04797 -188.52555  3.34%     -  534s
     0     0 -188.52555    0  491 -195.04797 -188.52555  3.34%     -  534s
     0     0 -188.52829    0  479 -195.04797 -188.52829  3.34%     -  535s
     0     0 -188.52829    0  479 -195.04797 -188.52829  3.34%     -  535s
     0     0 -188.57304    0  482 -195.04797 -188.57304  3.32%     -  536s
     0     0 -188.58609    0  488 -195.04797 -188.58609  3.31%     -  536s
     0     0 -188.58609    0  492 -195.04797 -188.58609  3.31%     -  536s
     0     0 -188.72904    0  470 -195.04797 -188.72904  3.24%     -  536s
     0     0 -188.73972    0  475 -195.04797 -188.73972  3.23%     -  536s
     0     0 -188.74496    0  474 -195.04797 -188.74496  3.23%     -  537s
     0     0 -188.74496    0  476 -195.04797 -188.74496  3.23%     -  537s
     0     0 -188.74496    0  475 -195.04797 -188.74496  3.23%     -  537s
     0     0 -189.00931    0  492 -195.04797 -189.00931  3.10%     -  537s
     0     0 -189.11203    0  494 -195.04797 -189.11203  3.04%     -  537s
     0     0 -189.17965    0  492 -195.04797 -189.17965  3.01%     -  537s
     0     0 -189.17965    0  493 -195.04797 -189.17965  3.01%     -  537s
     0     0 -189.68747    0  346 -195.04797 -189.68747  2.75%     -  538s
     0     0 -189.68747    0  382 -195.04797 -189.68747  2.75%     -  539s
     0     0 -189.68747    0  357 -195.04797 -189.68747  2.75%     -  539s
     0     0 -189.68747    0  337 -195.04797 -189.68747  2.75%     -  539s
     0     0 -189.68747    0  359 -195.04797 -189.68747  2.75%     -  539s
     0     0 -189.68747    0  360 -195.04797 -189.68747  2.75%     -  539s
     0     0 -190.13652    0  368 -195.04797 -190.13652  2.52%     -  539s
     0     0 -190.15955    0  368 -195.04797 -190.15955  2.51%     -  539s
     0     0 -190.18743    0  378 -195.04797 -190.18743  2.49%     -  539s
     0     0 -190.20471    0  378 -195.04797 -190.20471  2.48%     -  539s
     0     0 -190.24698    0  378 -195.04797 -190.24698  2.46%     -  539s
     0     0 -190.24698    0  377 -195.04797 -190.24698  2.46%     -  539s
     0     0 -190.27220    0  376 -195.04797 -190.27220  2.45%     -  540s
     0     0 -190.32533    0  377 -195.04797 -190.32533  2.42%     -  540s
     0     0 -190.32533    0  379 -195.04797 -190.32533  2.42%     -  540s
     0     0 -190.72291    0  380 -195.04797 -190.72291  2.22%     -  540s
     0     0 -190.72291    0  380 -195.04797 -190.72291  2.22%     -  540s
     0     0 -190.88138    0  382 -195.04797 -190.88138  2.14%     -  540s
     0     0 -190.88138    0  380 -195.04797 -190.88138  2.14%     -  540s
     0     0 -191.19398    0  376 -195.04797 -191.19398  1.98%     -  540s
     0     0 -191.23941    0  358 -195.04797 -191.23941  1.95%     -  540s
     0     0 -191.25221    0  382 -195.04797 -191.25221  1.95%     -  540s
     0     0 -191.25495    0  381 -195.04797 -191.25495  1.94%     -  540s
     0     0 -191.25495    0  379 -195.04797 -191.25495  1.94%     -  540s
     0     0 -191.31157    0  371 -195.04797 -191.31157  1.92%     -  540s
     0     0 -191.35958    0  373 -195.04797 -191.35958  1.89%     -  540s
     0     0 -191.35958    0  373 -195.04797 -191.35958  1.89%     -  540s
     0     0 -191.36524    0  373 -195.04797 -191.36524  1.89%     -  540s
     0     0 -191.38161    0  372 -195.04797 -191.38161  1.88%     -  540s
     0     0 -191.38279    0  376 -195.04797 -191.38279  1.88%     -  540s
     0     0 -191.42036    0  401 -195.04797 -191.42036  1.86%     -  540s
     0     0 -191.42206    0  401 -195.04797 -191.42206  1.86%     -  540s
     0     0 -191.48574    0  399 -195.04797 -191.48574  1.83%     -  540s
     0     0 -191.54071    0  401 -195.04797 -191.54071  1.80%     -  541s
     0     0 -191.54071    0  402 -195.04797 -191.54071  1.80%     -  541s
     0     0 -191.54071    0  402 -195.04797 -191.54071  1.80%     -  541s
     0     0 -191.54071    0  405 -195.04797 -191.54071  1.80%     -  541s
     0     0 -191.54071    0  405 -195.04797 -191.54071  1.80%     -  541s
     0     0 -191.54071    0  392 -195.04797 -191.54071  1.80%     -  541s
     0     0 -191.54071    0  393 -195.04797 -191.54071  1.80%     -  541s
     0     0 -191.54071    0  398 -195.04797 -191.54071  1.80%     -  541s
     0     0 -191.54071    0  397 -195.04797 -191.54071  1.80%     -  542s
     0     2 -191.82561    0  397 -195.04797 -191.82561  1.65%     -  542s

Cutting planes:
  Gomory: 6
  Implied bound: 11
  Clique: 5
  MIR: 1
  Zero half: 65

Explored 21 nodes (97170 simplex iterations) in 543.43 seconds
Thread count was 1 (of 80 available processors)

Solution count 10: -195.048 -195.048 -195.048 ... -288.275

Optimal solution found (tolerance 1.00e-04)
Best objective -1.950479682405e+02, best bound -1.950479682405e+02, gap 0.0000%
